Read MPS format model from file dat/rmp/DER_48_2048_30.mps
Reading time = 0.15 seconds
: 2096 rows, 9872 columns, 423541 nonzeros
Gurobi Optimizer version 9.0.0 build v9.0.0rc2 (linux64)
Optimize a model with 2096 rows, 9872 columns and 423541 nonzeros
Model fingerprint: 0x73253a58
Coefficient statistics:
  Matrix range     [3e-04, 1e+01]
  Objective range  [4e-01, 1e+03]
  Bounds range     [1e+04, 1e+04]
  RHS range        [1e+00, 1e+00]
Ordering time: 0.00s

Barrier statistics:
 AA' NZ     : 9.470e+04
 Factor NZ  : 1.179e+05 (roughly 6 MBytes of memory)
 Factor Ops : 6.959e+06 (less than 1 second per iteration)
 Threads    : 1

                  Objective                Residual
Iter       Primal          Dual         Primal    Dual     Compl     Time
   0   4.60983986e+08 -5.73572286e+07  2.52e+06 2.83e-02  4.84e+05     0s
   1   1.86605302e+07 -1.09576254e+07  8.81e+04 3.64e-12  1.80e+04     0s
   2   2.04137293e+06 -3.99824607e+06  9.91e+03 1.82e-12  2.29e+03     0s
   3   4.60886502e+04 -2.15874656e+06  1.56e+02 7.28e-12  2.43e+02     0s
   4   6.37428897e+03 -1.14219081e+05  1.44e-11 1.82e-12  1.22e+01     0s
   5   6.18710762e+03  1.16956515e+03  3.36e-11 2.73e-12  5.06e-01     0s
   6   6.15808611e+03  5.49099855e+03  3.35e-11 1.82e-11  6.72e-02     0s
   7   6.09441582e+03  5.96438916e+03  2.15e-11 1.82e-12  1.31e-02     0s
   8   6.07198767e+03  6.00136968e+03  7.80e-11 1.82e-12  7.12e-03     0s
   9   6.05031213e+03  6.01901278e+03  8.23e-11 3.64e-12  3.16e-03     0s
  10   6.03405372e+03  6.02629998e+03  1.50e-10 1.82e-12  7.82e-04     0s
  11   6.03035479e+03  6.02819695e+03  2.73e-10 3.64e-12  2.18e-04     0s
  12   6.02958006e+03  6.02867816e+03  6.26e-10 1.82e-12  9.09e-05     0s
  13   6.02928812e+03  6.02876974e+03  5.65e-10 1.82e-12  5.23e-05     0s
  14   6.02909958e+03  6.02883398e+03  9.08e-10 1.82e-12  2.68e-05     0s
  15   6.02894694e+03  6.02886925e+03  9.36e-10 1.82e-12  7.83e-06     0s
  16   6.02890298e+03  6.02887728e+03  1.64e-09 3.64e-12  2.59e-06     1s
  17   6.02888498e+03  6.02888021e+03  2.28e-09 1.82e-12  4.80e-07     1s
  18   6.02888146e+03  6.02888039e+03  8.88e-08 1.82e-12  1.08e-07     1s
  19   6.02888052e+03  6.02888050e+03  9.70e-08 3.64e-12  2.59e-09     1s

Barrier solved model in 19 iterations and 0.57 seconds
Optimal objective 6.02888052e+03

Solve time: 0.568887538
Barrier iterations: 19
